p cnf 18 14
-1 14 0 
-1 15 0 
-2 16 0 
-3 9 11 17 0 
-4 -5 -6 -7 -8 16 0 
-4 -5 -6 -7 -8 14 0 
-9 3 11 16 0 
-9 3 11 14 0 
-3 9 11 15 0 
-10 -8 18 0 
-3 9 11 14 0 
-3 9 11 16 0 
-11 3 9 14 0 
-11 3 9 16 0 
